50, 953025
13470, 4583
12914, 4511
12806, 4514
12933, 4608
13284, 4642
13220, 4502
13260, 4592
13607, 4405
12824, 4505
13587, 4500
13051, 4449
13648, 4412
13586, 4552
13404, 4569
13051, 4509
13120, 4532
13437, 4546
12984, 4617
13455, 4420
13584, 4476
12844, 4560
13410, 4564
12900, 4522
12732, 4600
13271, 4358
930879, 217400
918362, 213052
906776, 208704
894456, 204356
881825, 200008
869181, 195660
856807, 191312
844110, 186964
831414, 182616
819216, 178268
806767, 173920
794185, 169572
782371, 165224
770489, 160876
757831, 156528
745448, 152180
733064, 147832
720805, 143484
708406, 139136
696628, 134788
684024, 130440
671514, 126092
659944, 121744
647668, 117396
635312, 113048
